n=10;
m=12;
Ha=[[0.560000,0.560000,0.054000,0.054000,0.054000,1.300000,1.300000,1.300000,0.050000,0.054000],[0.560000,0.560000,0.054000,0.054000,0.054000,1.300000,1.300000,1.300000,0.050000,0.054000],[0.560000,0.560000,0.054000,0.054000,0.054000,1.300000,1.300000,1.300000,0.050000,0.054000],[0.560000,0.560000,0.054000,0.054000,0.054000,1.300000,1.300000,1.300000,0.050000,0.054000],[0.560000,0.560000,0.054000,0.054000,0.560000,1.300000,1.300000,1.300000,0.560000,0.054000],[0.560000,0.560000,0.054000,0.054000,0.560000,0.560000,0.560000,0.560000,0.560000,0.054000],[0.560000,0.560000,0.054000,0.054000,0.560000,0.560000,0.560000,0.560000,0.560000,0.054000],[0.560000,0.560000,0.054000,0.054000,0.054000,0.054000,0.054000,0.054000,0.054000,0.054000],[0.560000,0.560000,0.054000,0.054000,0.054000,0.054000,0.054000,0.054000,0.054000,0.054000],[0.000000,0.000000,0.054000,0.054000,0.054000,0.054000,0.054000,0.054000,0.054000,0.054000],[0.000000,0.000000,0.054000,0.054000,0.054000,0.054000,0.054000,0.054000,0.054000,0.054000],[0.000000,0.000000,0.000000,0.000000,0.000000,0.000000,0.000000,0.000000,0.000000,0.000000]];
Ca=[[0.620000,0.620000,0.720000,0.720000,0.720000,0.500000,0.500000,0.500000,0.750000,0.720000],[0.620000,0.620000,0.720000,0.720000,0.720000,0.500000,0.500000,0.500000,0.750000,0.720000],[0.620000,0.620000,0.720000,0.720000,0.720000,0.500000,0.500000,0.500000,0.750000,0.720000],[0.620000,0.620000,0.720000,0.720000,0.720000,0.500000,0.500000,0.500000,0.750000,0.720000],[0.620000,0.620000,0.720000,0.720000,0.620000,0.500000,0.500000,0.500000,0.620000,0.720000],[0.620000,0.620000,0.720000,0.720000,0.620000,0.620000,0.620000,0.620000,0.620000,0.720000],[0.620000,0.620000,0.720000,0.720000,0.620000,0.620000,0.620000,0.620000,0.620000,0.720000],[0.620000,0.620000,0.720000,0.720000,0.720000,0.720000,0.720000,0.720000,0.720000,0.720000],[0.620000,0.620000,0.720000,0.720000,0.720000,0.720000,0.720000,0.720000,0.720000,0.720000],[0.000000,0.000000,0.720000,0.720000,0.720000,0.720000,0.720000,0.720000,0.720000,0.720000],[0.000000,0.000000,0.720000,0.720000,0.720000,0.720000,0.720000,0.720000,0.720000,0.720000],[0.000000,0.000000,0.000000,0.000000,0.000000,0.000000,0.000000,0.000000,0.000000,0.000000]];
Hp=[[0.200000,0.200000,0.000000,0.000000,0.000000,0.200000,0.200000,0.200000,2.000000,0.000000],[0.200000,0.200000,0.000000,0.000000,0.000000,0.200000,0.200000,0.200000,2.000000,0.000000],[0.200000,0.200000,0.000000,0.000000,0.000000,0.200000,0.200000,0.200000,2.000000,0.000000],[0.200000,0.200000,0.000000,0.000000,0.000000,0.200000,0.200000,0.200000,2.000000,0.000000],[0.200000,0.200000,0.000000,0.000000,0.200000,0.200000,0.200000,0.200000,0.200000,0.000000],[0.200000,0.200000,0.000000,0.000000,0.200000,0.200000,0.200000,0.200000,0.200000,0.000000],[0.200000,0.200000,0.000000,0.000000,0.200000,0.200000,0.200000,0.200000,0.200000,0.000000],[0.200000,0.200000,0.000000,0.000000,0.000000,0.000000,0.000000,0.000000,0.000000,0.000000],[0.200000,0.200000,0.000000,0.000000,0.000000,0.000000,0.000000,0.000000,0.000000,0.000000],[0.000000,0.000000,0.000000,0.000000,0.000000,0.000000,0.000000,0.000000,0.000000,0.000000],[0.000000,0.000000,0.000000,0.000000,0.000000,0.000000,0.000000,0.000000,0.000000,0.000000],[0.000000,0.000000,0.000000,0.000000,0.000000,0.000000,0.000000,0.000000,0.000000,0.000000]];
Cp=[[0.630000,0.630000,0.750000,0.750000,0.750000,0.630000,0.630000,0.630000,0.370000,0.750000],[0.630000,0.630000,0.750000,0.750000,0.750000,0.630000,0.630000,0.630000,0.370000,0.750000],[0.630000,0.630000,0.750000,0.750000,0.750000,0.630000,0.630000,0.630000,0.370000,0.750000],[0.630000,0.630000,0.750000,0.750000,0.750000,0.630000,0.630000,0.630000,0.370000,0.750000],[0.630000,0.630000,0.750000,0.750000,0.630000,0.630000,0.630000,0.630000,0.630000,0.750000],[0.630000,0.630000,0.750000,0.750000,0.630000,0.630000,0.630000,0.630000,0.630000,0.750000],[0.630000,0.630000,0.750000,0.750000,0.630000,0.630000,0.630000,0.630000,0.630000,0.750000],[0.630000,0.630000,0.750000,0.750000,0.750000,0.750000,0.750000,0.750000,0.750000,0.750000],[0.630000,0.630000,0.750000,0.750000,0.750000,0.750000,0.750000,0.750000,0.750000,0.750000],[0.000000,0.000000,0.750000,0.750000,0.750000,0.750000,0.750000,0.750000,0.750000,0.750000],[0.000000,0.000000,0.750000,0.750000,0.750000,0.750000,0.750000,0.750000,0.750000,0.750000],[0.000000,0.000000,0.000000,0.000000,0.000000,0.000000,0.000000,0.000000,0.000000,0.000000]];
